p cnf 7230 15
-3726 -3732 -4259 4260 0
3722 -4259 0
3722 -4261 0
-2012 -3718 4254 0
2012 -4255 0
3726 -4261 0
-4254 4255 0
-4260 4261 0
-4257 4259 0
-3722 4258 0
4256 -4258 0
-4256 4257 0
3718 -4255 0
3732 -4261 0
3724 -4263 0
